60
517
4
56
45
25
90
0 5
0 6
0 8
0 13
0 16
0 19
0 20
0 23
0 24
0 32
0 35
0 38
0 39
0 40
0 44
0 51
0 58
1 2
1 3
1 6
1 12
1 13
1 17
1 18
1 24
1 26
1 29
1 33
1 34
1 48
1 51
1 59
2 3
2 4
2 10
2 17
2 24
2 30
2 39
2 42
2 43
2 54
2 59
3 8
3 9
3 10
3 11
3 13
3 17
3 21
3 24
3 28
3 36
3 38
3 44
3 51
3 52
3 59
4 7
4 10
4 11
4 12
4 17
4 18
4 20
4 21
4 22
4 23
4 24
4 25
4 26
4 27
4 30
4 33
4 38
4 46
4 47
4 48
4 51
4 57
5 13
5 16
5 17
5 20
5 23
5 24
5 26
5 30
5 32
5 37
5 42
5 44
5 46
5 51
5 52
5 54
6 14
6 15
6 16
6 20
6 24
6 25
6 26
6 30
6 31
6 34
6 41
6 44
6 48
6 51
6 53
6 58
7 9
7 11
7 13
7 14
7 18
7 20
7 29
7 30
7 32
7 33
7 36
7 39
7 41
7 43
7 45
7 49
7 52
8 13
8 14
8 17
8 19
8 20
8 22
8 25
8 32
8 34
8 39
8 41
8 42
8 50
8 51
8 53
8 56
9 11
9 15
9 16
9 23
9 26
9 27
9 31
9 32
9 36
9 39
9 46
9 47
9 50
9 56
10 18
10 20
10 23
10 24
10 30
10 31
10 36
10 37
10 40
10 50
10 52
10 53
10 58
11 15
11 19
11 20
11 23
11 24
11 25
11 28
11 29
11 32
11 35
11 37
11 41
11 45
11 47
11 53
11 54
11 57
11 58
12 15
12 16
12 18
12 19
12 20
12 22
12 25
12 27
12 31
12 32
12 35
12 39
12 52
12 53
12 56
12 58
13 14
13 20
13 21
13 22
13 23
13 28
13 29
13 30
13 37
13 38
13 41
13 52
13 54
13 57
14 15
14 18
14 19
14 21
14 22
14 23
14 25
14 32
14 33
14 34
14 35
14 38
14 40
14 45
14 47
15 19
15 24
15 29
15 40
15 42
15 43
15 44
15 47
15 51
15 52
15 53
15 55
15 59
16 17
16 26
16 29
16 30
16 31
16 35
16 36
16 37
16 45
16 51
16 56
17 21
17 25
17 27
17 32
17 37
17 43
17 44
17 46
17 53
17 54
17 55
17 56
18 29
18 32
18 34
18 36
18 44
18 46
18 47
18 50
18 51
18 52
18 55
18 57
19 24
19 29
19 33
19 38
19 41
19 43
19 46
19 47
19 48
19 56
19 58
20 23
20 26
20 32
20 34
20 41
20 42
20 44
20 47
20 48
20 50
20 53
20 54
21 24
21 29
21 33
21 38
21 42
21 47
22 23
22 24
22 33
22 34
22 37
22 38
22 40
22 41
22 42
22 44
22 45
22 46
22 47
23 24
23 29
23 34
23 35
23 43
23 48
23 49
23 53
23 55
24 26
24 27
24 33
24 35
24 38
24 40
24 41
24 42
24 55
25 31
25 33
25 35
25 45
25 46
25 47
25 51
25 53
25 56
26 29
26 30
26 34
26 37
26 45
26 47
26 51
26 54
26 55
26 58
27 28
27 29
27 31
27 42
27 49
27 51
27 55
27 56
28 38
28 41
28 42
28 44
28 46
28 47
28 49
28 53
28 58
29 32
29 33
29 34
29 40
29 53
29 55
29 59
30 32
30 38
30 40
30 45
30 46
30 51
30 52
30 54
30 55
30 59
31 33
31 38
31 39
31 45
31 46
31 52
31 53
31 55
31 57
32 35
32 36
32 37
32 40
32 44
32 45
32 46
32 49
32 52
32 54
32 55
33 34
33 38
33 39
33 41
33 43
33 46
33 56
34 41
34 49
34 52
35 37
35 38
35 41
35 46
35 51
35 54
35 55
35 58
36 37
36 41
36 42
36 44
36 45
36 47
36 49
36 50
36 52
36 54
36 55
36 59
37 39
37 40
37 45
37 48
37 49
37 50
37 52
37 55
37 57
37 59
38 42
38 43
38 57
38 58
39 47
39 48
39 50
39 51
39 53
39 54
39 59
40 41
40 45
40 49
40 58
41 44
41 52
41 53
41 54
41 55
41 56
41 57
41 59
42 44
42 46
42 48
42 51
42 54
42 55
42 57
43 51
43 56
43 57
44 51
45 52
45 54
45 57
45 58
46 50
46 54
46 57
46 58
47 53
47 54
48 51
48 52
49 50
49 55
50 52
50 54
50 59
51 54
51 57
52 54
52 55
53 57
54 57
54 58
56 59
57 58
57 59
29 43 24 17 33 4 58 27 38 22 18 52 7 55 45 10 31 42
59 9 2 32 34 0 53 26 28 23 13 30 1 25 12 36 35 46
40 49 57 16 11 6 15 48 54 39 3 14 5 41 20 50 19 47
51 56 37 8 44 21
